WARNING: for repeatability, setting FPU to use double precision
============================[ Problem Statistics ]=============================
|                                                                             |
|  Number of variables:           100                                         |
|  Number of clauses:             449                                         |
|  Parse time:                   0.00 s                                       |
|  Eliminated clauses:           0.00 Mb                                      |
|  Simplification time:          0.00 s                                       |
|                                                                             |
============================[ Search Statistics ]==============================
| Conflicts |          ORIGINAL         |          LEARNT          | Progress |
|           |    Vars  Clauses Literals |    Limit  Clauses Lit/Cl |          |
===============================================================================
|       100 |      94      442     1354 |      162      100      6 |  0.010 % |
|       250 |      94      442     1354 |      178      167      6 |  0.030 % |
===============================================================================
restarts              : 3
conflicts             : 321            (124806 /sec)
decisions             : 408            (0.00 % random) (158631 /sec)
propagations          : 7087           (2755443 /sec)
conflict literals     : 1798           (22.47 % deleted)
Memory used           : 13.00 MB
CPU time              : 0.002572 s

SATISFIABLE
